week_length = 7;
nb_workers = 17;
min_daysoff = 2;
max_daysoff = 4;
min_work = 4;
max_work = 7;
nb_shifts = 3;
shift_name = ["D", "A", "N"];
shift_block_min = [2, 2, 2];
shift_block_max = [7, 6, 5];
nb_forbidden = 3;
forbidden_before = [3, 3, 2];
forbidden_after = [1, 2, 1];
temp_req = array2d(1..3,1..7,[5, 4, 4, 4, 4, 4, 3, 5, 4, 4, 4, 4, 4, 4, 4, 3, 3, 3, 4, 4, 4]);
